\ This file was automatically generated by Zimpl
\ var p1;
\ var p2;
\ var p3;
\ var p4;
\ var p5;
\ subto szlif: 12*p1 + 20*p2 + 25*p4 + 15*p5 <= 144;
\ subto wierc: 10*p1 + 8*p2 + 16*p3 <= 96;
\ subto praca: 20*p1 + 20*p2 + 20*p3 + 20*p4 + 20*p5 <= 48*8;
\ maximize zysk: 550*p1 + 600*p2 + 350*p3 + 400*p4 + 200*p5;
\Problem name: szlifowanie.zpl
Maximize
 zysk:  +550 p1 +600 p2 +350 p3 +400 p4 +200 p5
Subject to
 szlif_1:
  +15 p5 +25 p4 +20 p2 +12 p1 <= 144
 wierc_1:
  +16 p3 +8 p2 +10 p1 <= 96
 praca_1:
  +20 p5 +20 p4 +20 p3 +20 p2 +20 p1 <= 384
Bounds
 0 <= p1 <= +inf
 0 <= p2 <= +inf
 0 <= p3 <= +inf
 0 <= p4 <= +inf
 0 <= p5 <= +inf
End
